NAME : problem.532035.tour
COMMENT : Length = 532035
COMMENT : Found by LKH-3 [Keld Helsgaun] Tue Jul 23 19:55:12 2024
TYPE : TOUR
DIMENSION : 24
TOUR_SECTION
1
4
16
7
20
6
11
2
24
9
5
8
17
19
23
13
14
3
15
18
12
22
10
21
-1
EOF
